\* GDO *\
Minimize
OBJ: 488 X0 + 411 X1 + 149 X10 + 748 X100 + 423 X101 + 921 X102 + 1773 X103
 + 993 X104 + 319 X105 + 667 X106 + 390 X107 + 660 X108 + 172 X109 + 449 X11
 + 649 X110 + 343 X111 + 547 X112 + 480 X113 + 195 X114 + 288 X115 + 287 X116
 + 682 X117 + 322 X118 + 301 X119 + 73 X12 + 202 X120 + 567 X121 + 251 X122
 + 408 X123 + 277 X124 + 302 X125 + 263 X126 + 123 X127 + 169 X128 + 188 X129
 + 481 X13 + 455 X130 + 625 X131 + 656 X132 + 321 X133 + 792 X134 + 818 X135
 + 249 X136 + 262 X137 + 488 X138 + 307 X139 + 339 X14 + 339 X140 + 579 X141
 + 377 X142 + 422 X143 + 222 X144 + 344 X145 + 657 X146 + 389 X147 + 626 X148
 + 688 X149 + 86 X15 + 514 X150 + 282 X151 + 517 X152 + 397 X153 + 881 X154
 + 281 X155 + 678 X156 + 206 X157 + 778 X158 + 224 X159 + 131 X16 + 673 X160
 + 173 X161 + 319 X162 + 123 X163 + 494 X164 + 363 X165 + 288 X166 + 383 X167
 + 237 X168 + 704 X169 + 320 X17 + 428 X170 + 389 X171 + 196 X172 + 595 X173
 + 345 X174 + 386 X175 + 245 X176 + 94 X177 + 285 X178 + 228 X179 + 60 X18
 + 294 X180 + 219 X181 + 354 X182 + 650 X183 + 595 X184 + 219 X185 + 477 X186
 + 659 X187 + 88 X188 + 105 X189 + 133 X19 + 305 X190 + 140 X191 + 361 X192
 + 781 X193 + 275 X194 + 97 X195 + 238 X196 + 151 X197 + 989 X198 + 206 X199
 + 479 X2 + 75 X20 + 401 X200 + 746 X201 + 414 X202 + 304 X203 + 286 X204
 + 620 X205 + 617 X206 + 476 X207 + 230 X21 + 62 X22 + 186 X23 + 389 X24
 + 103 X25 + 253 X26 + 426 X27 + 454 X28 + 123 X29 + 445 X3 + 624 X30
 + 546 X31 + 275 X32 + 202 X33 + 331 X34 + 159 X35 + 137 X36 + 482 X37
 + 179 X38 + 396 X39 + 458 X4 + 80 X40 + 189 X41 + 801 X42 + 238 X43 + 481 X44
 + 462 X45 + 312 X46 + 476 X47 + 303 X48 + 338 X49 + 196 X5 + 651 X50
 + 644 X51 + 1280 X52 + 745 X53 + 116 X54 + 779 X55 + 394 X56 + 782 X57
 + 1126 X58 + 546 X59 + 587 X6 + 456 X60 + 586 X61 + 425 X62 + 783 X63
 + 653 X64 + 298 X65 + 485 X66 + 516 X67 + 722 X68 + 313 X69 + 230 X7
 + 570 X70 + 511 X71 + 362 X72 + 564 X73 + 303 X74 + 755 X75 + 942 X76
 + 438 X77 + 495 X78 + 123 X79 + 273 X8 + 461 X80 + 414 X81 + 1040 X82
 + 637 X83 + 868 X84 + 793 X85 + 579 X86 + 493 X87 + 310 X88 + 288 X89
 + 213 X9 + 449 X90 + 975 X91 + 670 X92 + 750 X93 + 863 X94 + 567 X95
 + 712 X96 + 171 X97 + 387 X98 + 1046 X99
Subject To
ass0: Q208 + Q260 + Q312 + Q364 = 27
ass1: Q209 + Q261 + Q313 + Q365 = 23
ass10: Q218 + Q270 + Q322 + Q374 = 20
ass11: Q219 + Q271 + Q323 + Q375 = 15
ass12: Q220 + Q272 + Q324 + Q376 = 27
ass13: Q221 + Q273 + Q325 + Q377 = 26
ass14: Q222 + Q274 + Q326 + Q378 = 29
ass15: Q223 + Q275 + Q327 + Q379 = 23
ass16: Q224 + Q276 + Q328 + Q380 = 21
ass17: Q225 + Q277 + Q329 + Q381 = 14
ass18: Q226 + Q278 + Q330 + Q382 = 18
ass19: Q227 + Q279 + Q331 + Q383 = 12
ass2: Q210 + Q262 + Q314 + Q366 = 28
ass20: Q228 + Q280 + Q332 + Q384 = 28
ass21: Q229 + Q281 + Q333 + Q385 = 30
ass22: Q230 + Q282 + Q334 + Q386 = 34
ass23: Q231 + Q283 + Q335 + Q387 = 18
ass24: Q232 + Q284 + Q336 + Q388 = 17
ass25: Q233 + Q285 + Q337 + Q389 = 20
ass26: Q234 + Q286 + Q338 + Q390 = 17
ass27: Q235 + Q287 + Q339 + Q391 = 19
ass28: Q236 + Q288 + Q340 + Q392 = 11
ass29: Q237 + Q289 + Q341 + Q393 = 28
ass3: Q211 + Q263 + Q315 + Q367 = 23
ass30: Q238 + Q290 + Q342 + Q394 = 11
ass31: Q239 + Q291 + Q343 + Q395 = 14
ass32: Q240 + Q292 + Q344 + Q396 = 16
ass33: Q241 + Q293 + Q345 + Q397 = 29
ass34: Q242 + Q294 + Q346 + Q398 = 12
ass35: Q243 + Q295 + Q347 + Q399 = 18
ass36: Q244 + Q296 + Q348 + Q400 = 29
ass37: Q245 + Q297 + Q349 + Q401 = 25
ass38: Q246 + Q298 + Q350 + Q402 = 20
ass39: Q247 + Q299 + Q351 + Q403 = 26
ass4: Q212 + Q264 + Q316 + Q368 = 19
ass40: Q248 + Q300 + Q352 + Q404 = 14
ass41: Q249 + Q301 + Q353 + Q405 = 9
ass42: Q250 + Q302 + Q354 + Q406 = 17
ass43: Q251 + Q303 + Q355 + Q407 = 26
ass44: Q252 + Q304 + Q356 + Q408 = 14
ass45: Q253 + Q305 + Q357 + Q409 = 17
ass46: Q254 + Q306 + Q358 + Q410 = 20
ass47: Q255 + Q307 + Q359 + Q411 = 5
ass48: Q256 + Q308 + Q360 + Q412 = 14
ass49: Q257 + Q309 + Q361 + Q413 = 21
ass5: Q213 + Q265 + Q317 + Q369 = 17
ass50: Q258 + Q310 + Q362 + Q414 = 32
ass51: Q259 + Q311 + Q363 + Q415 = 16
ass6: Q214 + Q266 + Q318 + Q370 = 19
ass7: Q215 + Q267 + Q319 + Q371 = 14
ass8: Q216 + Q268 + Q320 + Q372 = 28
ass9: Q217 + Q269 + Q321 + Q373 = 17
b0: X0 + X104 + X156 + X52 <= 1
b1: X1 + X105 + X157 + X53 <= 2
b10: X10 + X114 + X166 + X62 <= 1
b11: X11 + X115 + X167 + X63 <= 1
b12: X116 + X12 + X168 + X64 <= 1
b13: X117 + X13 + X169 + X65 <= 1
b14: X118 + X14 + X170 + X66 <= 2
b15: X119 + X15 + X171 + X67 <= 1
b16: X120 + X16 + X172 + X68 <= 1
b17: X121 + X17 + X173 + X69 <= 1
b18: X122 + X174 + X18 + X70 <= 1
b19: X123 + X175 + X19 + X71 <= 1
b2: X106 + X158 + X2 + X54 <= 1
b20: X124 + X176 + X20 + X72 <= 1
b21: X125 + X177 + X21 + X73 <= 1
b22: X126 + X178 + X22 + X74 <= 1
b23: X127 + X179 + X23 + X75 <= 2
b24: X128 + X180 + X24 + X76 <= 1
b25: X129 + X181 + X25 + X77 <= 1
b26: X130 + X182 + X26 + X78 <= 1
b27: X131 + X183 + X27 + X79 <= 1
b28: X132 + X184 + X28 + X80 <= 1
b29: X133 + X185 + X29 + X81 <= 1
b3: X107 + X159 + X3 + X55 <= 1
b30: X134 + X186 + X30 + X82 <= 1
b31: X135 + X187 + X31 + X83 <= 1
b32: X136 + X188 + X32 + X84 <= 1
b33: X137 + X189 + X33 + X85 <= 1
b34: X138 + X190 + X34 + X86 <= 1
b35: X139 + X191 + X35 + X87 <= 1
b36: X140 + X192 + X36 + X88 <= 1
b37: X141 + X193 + X37 + X89 <= 1
b38: X142 + X194 + X38 + X90 <= 1
b39: X143 + X195 + X39 + X91 <= 1
b4: X108 + X160 + X4 + X56 <= 1
b40: X144 + X196 + X40 + X92 <= 1
b41: X145 + X197 + X41 + X93 <= 1
b42: X146 + X198 + X42 + X94 <= 1
b43: X147 + X199 + X43 + X95 <= 1
b44: X148 + X200 + X44 + X96 <= 1
b45: X149 + X201 + X45 + X97 <= 1
b46: X150 + X202 + X46 + X98 <= 1
b47: X151 + X203 + X47 + X99 <= 1
b48: X100 + X152 + X204 + X48 <= 1
b49: X101 + X153 + X205 + X49 <= 1
b5: X109 + X161 + X5 + X57 <= 1
b50: X102 + X154 + X206 + X50 <= 1
b51: X103 + X155 + X207 + X51 <= 1
b6: X110 + X162 + X58 + X6 <= 1
b7: X111 + X163 + X59 + X7 <= 1
b8: X112 + X164 + X60 + X8 <= 1
b9: X113 + X165 + X61 + X9 <= 1
cap0: Q208 + Q209 + Q210 + Q211 + Q212 + Q213 + Q214 + Q215 + Q216 + Q217
 + Q218 + Q219 + Q220 + Q221 + Q222 + Q223 + Q224 + Q225 + Q226 + Q227 + Q228
 + Q229 + Q230 + Q231 + Q232 + Q233 + Q234 + Q235 + Q236 + Q237 + Q238 + Q239
 + Q240 + Q241 + Q242 + Q243 + Q244 + Q245 + Q246 + Q247 + Q248 + Q249 + Q250
 + Q251 + Q252 + Q253 + Q254 + Q255 + Q256 + Q257 + Q258 + Q259 <= 120
cap1: Q260 + Q261 + Q262 + Q263 + Q264 + Q265 + Q266 + Q267 + Q268 + Q269
 + Q270 + Q271 + Q272 + Q273 + Q274 + Q275 + Q276 + Q277 + Q278 + Q279 + Q280
 + Q281 + Q282 + Q283 + Q284 + Q285 + Q286 + Q287 + Q288 + Q289 + Q290 + Q291
 + Q292 + Q293 + Q294 + Q295 + Q296 + Q297 + Q298 + Q299 + Q300 + Q301 + Q302
 + Q303 + Q304 + Q305 + Q306 + Q307 + Q308 + Q309 + Q310 + Q311 <= 1000
cap2: Q312 + Q313 + Q314 + Q315 + Q316 + Q317 + Q318 + Q319 + Q320 + Q321
 + Q322 + Q323 + Q324 + Q325 + Q326 + Q327 + Q328 + Q329 + Q330 + Q331 + Q332
 + Q333 + Q334 + Q335 + Q336 + Q337 + Q338 + Q339 + Q340 + Q341 + Q342 + Q343
 + Q344 + Q345 + Q346 + Q347 + Q348 + Q349 + Q350 + Q351 + Q352 + Q353 + Q354
 + Q355 + Q356 + Q357 + Q358 + Q359 + Q360 + Q361 + Q362 + Q363 <= 300
cap3: Q364 + Q365 + Q366 + Q367 + Q368 + Q369 + Q370 + Q371 + Q372 + Q373
 + Q374 + Q375 + Q376 + Q377 + Q378 + Q379 + Q380 + Q381 + Q382 + Q383 + Q384
 + Q385 + Q386 + Q387 + Q388 + Q389 + Q390 + Q391 + Q392 + Q393 + Q394 + Q395
 + Q396 + Q397 + Q398 + Q399 + Q400 + Q401 + Q402 + Q403 + Q404 + Q405 + Q406
 + Q407 + Q408 + Q409 + Q410 + Q411 + Q412 + Q413 + Q414 + Q415 <= 180
Bounds
 0 <= Q208 <= 34
 0 <= Q209 <= 34
 0 <= Q210 <= 34
 0 <= Q211 <= 34
 0 <= Q212 <= 34
 0 <= Q213 <= 34
 0 <= Q214 <= 34
 0 <= Q215 <= 34
 0 <= Q216 <= 34
 0 <= Q217 <= 34
 0 <= Q218 <= 34
 0 <= Q219 <= 34
 0 <= Q220 <= 34
 0 <= Q221 <= 34
 0 <= Q222 <= 34
 0 <= Q223 <= 34
 0 <= Q224 <= 34
 0 <= Q225 <= 34
 0 <= Q226 <= 34
 0 <= Q227 <= 34
 0 <= Q228 <= 34
 0 <= Q229 <= 34
 0 <= Q230 <= 34
 0 <= Q231 <= 34
 0 <= Q232 <= 34
 0 <= Q233 <= 34
 0 <= Q234 <= 34
 0 <= Q235 <= 34
 0 <= Q236 <= 34
 0 <= Q237 <= 34
 0 <= Q238 <= 34
 0 <= Q239 <= 34
 0 <= Q240 <= 34
 0 <= Q241 <= 34
 0 <= Q242 <= 34
 0 <= Q243 <= 34
 0 <= Q244 <= 34
 0 <= Q245 <= 34
 0 <= Q246 <= 34
 0 <= Q247 <= 34
 0 <= Q248 <= 34
 0 <= Q249 <= 34
 0 <= Q250 <= 34
 0 <= Q251 <= 34
 0 <= Q252 <= 34
 0 <= Q253 <= 34
 0 <= Q254 <= 34
 0 <= Q255 <= 34
 0 <= Q256 <= 34
 0 <= Q257 <= 34
 0 <= Q258 <= 34
 0 <= Q259 <= 34
 0 <= Q260 <= 34
 0 <= Q261 <= 34
 0 <= Q262 <= 34
 0 <= Q263 <= 34
 0 <= Q264 <= 34
 0 <= Q265 <= 34
 0 <= Q266 <= 34
 0 <= Q267 <= 34
 0 <= Q268 <= 34
 0 <= Q269 <= 34
 0 <= Q270 <= 34
 0 <= Q271 <= 34
 0 <= Q272 <= 34
 0 <= Q273 <= 34
 0 <= Q274 <= 34
 0 <= Q275 <= 34
 0 <= Q276 <= 34
 0 <= Q277 <= 34
 0 <= Q278 <= 34
 0 <= Q279 <= 34
 0 <= Q280 <= 34
 0 <= Q281 <= 34
 0 <= Q282 <= 34
 0 <= Q283 <= 34
 0 <= Q284 <= 34
 0 <= Q285 <= 34
 0 <= Q286 <= 34
 0 <= Q287 <= 34
 0 <= Q288 <= 34
 0 <= Q289 <= 34
 0 <= Q290 <= 34
 0 <= Q291 <= 34
 0 <= Q292 <= 34
 0 <= Q293 <= 34
 0 <= Q294 <= 34
 0 <= Q295 <= 34
 0 <= Q296 <= 34
 0 <= Q297 <= 34
 0 <= Q298 <= 34
 0 <= Q299 <= 34
 0 <= Q300 <= 34
 0 <= Q301 <= 34
 0 <= Q302 <= 34
 0 <= Q303 <= 34
 0 <= Q304 <= 34
 0 <= Q305 <= 34
 0 <= Q306 <= 34
 0 <= Q307 <= 34
 0 <= Q308 <= 34
 0 <= Q309 <= 34
 0 <= Q310 <= 34
 0 <= Q311 <= 34
 0 <= Q312 <= 34
 0 <= Q313 <= 34
 0 <= Q314 <= 34
 0 <= Q315 <= 34
 0 <= Q316 <= 34
 0 <= Q317 <= 34
 0 <= Q318 <= 34
 0 <= Q319 <= 34
 0 <= Q320 <= 34
 0 <= Q321 <= 34
 0 <= Q322 <= 34
 0 <= Q323 <= 34
 0 <= Q324 <= 34
 0 <= Q325 <= 34
 0 <= Q326 <= 34
 0 <= Q327 <= 34
 0 <= Q328 <= 34
 0 <= Q329 <= 34
 0 <= Q330 <= 34
 0 <= Q331 <= 34
 0 <= Q332 <= 34
 0 <= Q333 <= 34
 0 <= Q334 <= 34
 0 <= Q335 <= 34
 0 <= Q336 <= 34
 0 <= Q337 <= 34
 0 <= Q338 <= 34
 0 <= Q339 <= 34
 0 <= Q340 <= 34
 0 <= Q341 <= 34
 0 <= Q342 <= 34
 0 <= Q343 <= 34
 0 <= Q344 <= 34
 0 <= Q345 <= 34
 0 <= Q346 <= 34
 0 <= Q347 <= 34
 0 <= Q348 <= 34
 0 <= Q349 <= 34
 0 <= Q350 <= 34
 0 <= Q351 <= 34
 0 <= Q352 <= 34
 0 <= Q353 <= 34
 0 <= Q354 <= 34
 0 <= Q355 <= 34
 0 <= Q356 <= 34
 0 <= Q357 <= 34
 0 <= Q358 <= 34
 0 <= Q359 <= 34
 0 <= Q360 <= 34
 0 <= Q361 <= 34
 0 <= Q362 <= 34
 0 <= Q363 <= 34
 0 <= Q364 <= 34
 0 <= Q365 <= 34
 0 <= Q366 <= 34
 0 <= Q367 <= 34
 0 <= Q368 <= 34
 0 <= Q369 <= 34
 0 <= Q370 <= 34
 0 <= Q371 <= 34
 0 <= Q372 <= 34
 0 <= Q373 <= 34
 0 <= Q374 <= 34
 0 <= Q375 <= 34
 0 <= Q376 <= 34
 0 <= Q377 <= 34
 0 <= Q378 <= 34
 0 <= Q379 <= 34
 0 <= Q380 <= 34
 0 <= Q381 <= 34
 0 <= Q382 <= 34
 0 <= Q383 <= 34
 0 <= Q384 <= 34
 0 <= Q385 <= 34
 0 <= Q386 <= 34
 0 <= Q387 <= 34
 0 <= Q388 <= 34
 0 <= Q389 <= 34
 0 <= Q390 <= 34
 0 <= Q391 <= 34
 0 <= Q392 <= 34
 0 <= Q393 <= 34
 0 <= Q394 <= 34
 0 <= Q395 <= 34
 0 <= Q396 <= 34
 0 <= Q397 <= 34
 0 <= Q398 <= 34
 0 <= Q399 <= 34
 0 <= Q400 <= 34
 0 <= Q401 <= 34
 0 <= Q402 <= 34
 0 <= Q403 <= 34
 0 <= Q404 <= 34
 0 <= Q405 <= 34
 0 <= Q406 <= 34
 0 <= Q407 <= 34
 0 <= Q408 <= 34
 0 <= Q409 <= 34
 0 <= Q410 <= 34
 0 <= Q411 <= 34
 0 <= Q412 <= 34
 0 <= Q413 <= 34
 0 <= Q414 <= 34
 0 <= Q415 <= 34
Generals
Q208
Q209
Q210
Q211
Q212
Q213
Q214
Q215
Q216
Q217
Q218
Q219
Q220
Q221
Q222
Q223
Q224
Q225
Q226
Q227
Q228
Q229
Q230
Q231
Q232
Q233
Q234
Q235
Q236
Q237
Q238
Q239
Q240
Q241
Q242
Q243
Q244
Q245
Q246
Q247
Q248
Q249
Q250
Q251
Q252
Q253
Q254
Q255
Q256
Q257
Q258
Q259
Q260
Q261
Q262
Q263
Q264
Q265
Q266
Q267
Q268
Q269
Q270
Q271
Q272
Q273
Q274
Q275
Q276
Q277
Q278
Q279
Q280
Q281
Q282
Q283
Q284
Q285
Q286
Q287
Q288
Q289
Q290
Q291
Q292
Q293
Q294
Q295
Q296
Q297
Q298
Q299
Q300
Q301
Q302
Q303
Q304
Q305
Q306
Q307
Q308
Q309
Q310
Q311
Q312
Q313
Q314
Q315
Q316
Q317
Q318
Q319
Q320
Q321
Q322
Q323
Q324
Q325
Q326
Q327
Q328
Q329
Q330
Q331
Q332
Q333
Q334
Q335
Q336
Q337
Q338
Q339
Q340
Q341
Q342
Q343
Q344
Q345
Q346
Q347
Q348
Q349
Q350
Q351
Q352
Q353
Q354
Q355
Q356
Q357
Q358
Q359
Q360
Q361
Q362
Q363
Q364
Q365
Q366
Q367
Q368
Q369
Q370
Q371
Q372
Q373
Q374
Q375
Q376
Q377
Q378
Q379
Q380
Q381
Q382
Q383
Q384
Q385
Q386
Q387
Q388
Q389
Q390
Q391
Q392
Q393
Q394
Q395
Q396
Q397
Q398
Q399
Q400
Q401
Q402
Q403
Q404
Q405
Q406
Q407
Q408
Q409
Q410
Q411
Q412
Q413
Q414
Q415
Binaries
X0
X1
X10
X100
X101
X102
X103
X104
X105
X106
X107
X108
X109
X11
X110
X111
X112
X113
X114
X115
X116
X117
X118
X119
X12
X120
X121
X122
X123
X124
X125
X126
X127
X128
X129
X13
X130
X131
X132
X133
X134
X135
X136
X137
X138
X139
X14
X140
X141
X142
X143
X144
X145
X146
X147
X148
X149
X15
X150
X151
X152
X153
X154
X155
X156
X157
X158
X159
X16
X160
X161
X162
X163
X164
X165
X166
X167
X168
X169
X17
X170
X171
X172
X173
X174
X175
X176
X177
X178
X179
X18
X180
X181
X182
X183
X184
X185
X186
X187
X188
X189
X19
X190
X191
X192
X193
X194
X195
X196
X197
X198
X199
X2
X20
X200
X201
X202
X203
X204
X205
X206
X207
X21
X22
X23
X24
X25
X26
X27
X28
X29
X3
X30
X31
X32
X33
X34
X35
X36
X37
X38
X39
X4
X40
X41
X42
X43
X44
X45
X46
X47
X48
X49
X5
X50
X51
X52
X53
X54
X55
X56
X57
X58
X59
X6
X60
X61
X62
X63
X64
X65
X66
X67
X68
X69
X7
X70
X71
X72
X73
X74
X75
X76
X77
X78
X79
X8
X80
X81
X82
X83
X84
X85
X86
X87
X88
X89
X9
X90
X91
X92
X93
X94
X95
X96
X97
X98
X99
End
